datasets/5l1i.sol
 
couenne: Optimal

Options
3
3
1
0
5
0
6
6
190
10
200
0
100
0
objno 0 3
